<number of tasks>
50

<cycle time>
1000

<order strength>
0.603


<task times>
1 170
2 101
3 43
4 87
5 105
6 69
7 156
8 94
9 130
10 216
11 313
12 21
13 134
14 217
15 273
16 210
17 97
18 372
19 155
20 71
21 123
22 105
23 179
24 255
25 142
26 164
27 33
28 54
29 170
30 102
31 28
32 120
33 152
34 177
35 68
36 91
37 241
38 116
39 200
40 89
41 157
42 160
43 103
44 62
45 129
46 77
47 113
48 142
49 169
50 23

<precedence relations>
1,11
2,11
3,39
4,6
4,7
4,8
4,10
5,7
5,9
5,12
6,11
7,11
8,11
9,23
10,11
10,12
10,13
10,14
11,15
11,16
11,17
11,18
11,19
11,20
11,21
12,23
13,23
14,24
14,38
14,40
16,23
16,24
17,26
18,22
18,23
18,26
19,22
19,25
19,41
20,23
21,26
21,38
22,39
23,28
23,29
23,30
23,31
23,32
24,27
24,34
24,41
25,33
26,34
26,36
26,37
27,39
29,34
29,40
29,41
30,35
30,36
30,38
31,34
31,35
31,46
32,35
32,37
33,47
34,39
36,40
36,41
37,41
38,39
39,42
39,43
39,44
39,45
40,46
41,46
41,48
43,47
45,48
46,47
47,49
47,50

<end>
